unknown
(model
; cardinality of BoundSet is 3
(declare-sort BoundSet 0)
; rep: @uc_BoundSet_0
; rep: @uc_BoundSet_1
; rep: @uc_BoundSet_2
; cardinality of UnboundSet is 1
(declare-sort UnboundSet 0)
(declare-fun groundTerm_4 () UnboundSet)
(define-fun IsSomeone ((BOUND_VARIABLE_480 BoundSet)) Bool true)
(define-fun AreBillionPeople ((BOUND_VARIABLE_480 BoundSet)) Bool true)
(define-fun AreUnlivableConditions ((BOUND_VARIABLE_480 BoundSet)) Bool true)
(define-fun IsUnraveling ((BOUND_VARIABLE_492 BoundSet) (BOUND_VARIABLE_493 BoundSet)) Bool false)
(define-fun IsNationState ((BOUND_VARIABLE_480 BoundSet)) Bool false)
)
sat
(model
; cardinality of BoundSet is 1
(declare-sort BoundSet 0)
; rep: @uc_BoundSet_0
; cardinality of UnboundSet is 1
(declare-sort UnboundSet 0)
(declare-fun groundTerm_7 () UnboundSet)
(define-fun IsSomeone ((BOUND_VARIABLE_530 BoundSet)) Bool true)
(define-fun AreBillionPeople ((BOUND_VARIABLE_530 BoundSet)) Bool true)
(define-fun AreUnlivableConditions ((BOUND_VARIABLE_530 BoundSet)) Bool true)
(define-fun IsUnraveling ((BOUND_VARIABLE_538 BoundSet) (BOUND_VARIABLE_539 BoundSet)) Bool false)
(define-fun IsNationState ((BOUND_VARIABLE_530 BoundSet)) Bool false)
)
